jobs  (incl. supersource/sink ):	52
RESOURCES
- renewable                 : 4 R
- nonrenewable              : 4 N
- doubly constrained        : 0 D
************************************************************************
PRECEDENCE RELATIONS:
jobnr.    #modes  #successors   successors
1	1	18		2 3 4 5 6 7 8 9 10 11 13 14 16 17 20 21 22 31 
2	6	7		51 49 29 26 23 19 12 
3	6	9		51 49 47 35 34 28 27 23 19 
4	6	7		50 49 47 33 32 25 15 
5	6	8		51 49 48 36 34 30 29 19 
6	6	7		49 47 44 35 33 27 19 
7	6	8		50 48 40 37 36 30 25 23 
8	6	8		50 48 47 46 44 37 33 19 
9	6	6		45 42 29 28 27 18 
10	6	10		50 48 46 43 42 39 35 34 32 29 
11	6	6		47 46 43 33 29 24 
12	6	6		47 39 34 33 32 25 
13	6	4		49 46 34 19 
14	6	9		51 49 46 43 41 40 39 33 32 
15	6	5		46 40 38 26 23 
16	6	3		47 46 19 
17	6	7		50 46 41 39 38 34 29 
18	6	8		48 47 44 43 41 40 39 38 
19	6	7		45 43 42 41 40 39 32 
20	6	7		47 45 43 42 40 39 38 
21	6	7		47 43 42 41 40 39 38 
22	6	5		46 45 41 40 32 
23	6	5		45 44 43 42 39 
24	6	4		44 42 39 32 
25	6	4		46 43 41 38 
26	6	4		44 42 41 39 
27	6	3		48 46 38 
28	6	2		40 32 
29	6	2		44 40 
30	6	2		44 42 
31	6	2		44 39 
32	6	1		38 
33	6	1		45 
34	6	1		40 
35	6	1		41 
36	6	1		41 
37	6	1		42 
38	6	1		52 
39	6	1		52 
40	6	1		52 
41	6	1		52 
42	6	1		52 
43	6	1		52 
44	6	1		52 
45	6	1		52 
46	6	1		52 
47	6	1		52 
48	6	1		52 
49	6	1		52 
50	6	1		52 
51	6	1		52 
52	1	0		
************************************************************************
REQUESTS/DURATIONS
jobnr.	mode	dur	R1	R2	R3	R4	N1	N2	N3	N4	
------------------------------------------------------------------------
1	1	0	0	0	0	0	0	0	0	0	
2	1	1	3	3	4	5	25	20	17	17	
	2	4	3	3	4	4	21	19	16	16	
	3	24	2	3	4	4	14	19	13	15	
	4	26	2	2	4	3	11	18	7	12	
	5	27	2	2	4	3	7	18	6	11	
	6	30	1	2	4	3	3	17	3	9	
3	1	5	1	3	3	4	20	9	17	19	
	2	11	1	3	2	4	18	9	16	16	
	3	12	1	3	2	4	16	7	16	14	
	4	13	1	2	2	4	14	7	16	14	
	5	20	1	2	2	4	12	5	16	11	
	6	30	1	2	2	4	10	5	16	8	
4	1	3	2	4	3	4	1	28	13	5	
	2	6	2	4	2	3	1	28	10	5	
	3	7	2	4	2	3	1	26	10	5	
	4	8	1	3	1	3	1	24	8	5	
	5	15	1	3	1	3	1	23	7	5	
	6	28	1	2	1	3	1	21	4	5	
5	1	1	3	3	2	3	28	26	16	20	
	2	8	3	2	2	2	25	25	15	18	
	3	11	3	2	2	2	25	25	13	18	
	4	23	3	2	2	1	20	25	13	15	
	5	24	3	1	2	1	19	25	12	14	
	6	27	3	1	2	1	17	25	11	13	
6	1	10	3	5	3	4	25	28	2	17	
	2	11	2	4	3	4	21	25	2	17	
	3	15	2	4	3	4	20	22	2	17	
	4	21	2	4	3	4	20	17	1	17	
	5	22	2	3	3	4	16	16	1	17	
	6	23	2	3	3	4	15	12	1	17	
7	1	5	4	3	3	4	10	26	19	14	
	2	12	4	3	2	4	9	22	18	13	
	3	13	4	2	2	4	9	20	18	10	
	4	14	4	2	2	4	9	15	16	9	
	5	17	4	1	1	4	8	15	16	8	
	6	25	4	1	1	4	8	12	14	6	
8	1	2	4	5	2	5	4	17	12	20	
	2	10	4	4	2	4	4	15	11	17	
	3	15	4	4	2	4	4	13	11	13	
	4	16	3	4	2	4	3	9	11	12	
	5	18	3	3	2	3	2	6	10	8	
	6	23	3	3	2	3	2	4	9	3	
9	1	6	1	2	5	1	18	25	5	25	
	2	15	1	2	4	1	16	23	4	25	
	3	22	1	2	3	1	15	19	3	25	
	4	24	1	2	3	1	15	16	3	25	
	5	27	1	1	2	1	14	12	2	25	
	6	30	1	1	1	1	13	8	1	25	
10	1	2	2	1	3	4	19	21	11	23	
	2	5	2	1	2	4	18	21	11	16	
	3	6	2	1	2	4	17	20	9	13	
	4	10	2	1	2	4	17	19	8	12	
	5	14	2	1	1	4	17	19	8	7	
	6	21	2	1	1	4	16	18	7	4	
11	1	1	3	2	3	3	17	26	28	26	
	2	3	3	2	3	3	12	25	25	24	
	3	4	3	2	3	3	11	21	25	22	
	4	12	3	2	2	3	6	21	23	20	
	5	14	3	2	2	3	3	18	21	18	
	6	27	3	2	2	3	2	15	20	17	
12	1	6	4	3	3	5	16	14	25	20	
	2	9	3	3	3	5	16	14	23	19	
	3	16	3	3	3	5	16	13	23	19	
	4	17	3	3	3	5	16	13	20	18	
	5	22	3	3	3	5	16	12	18	18	
	6	23	3	3	3	5	16	12	18	17	
13	1	12	3	4	5	5	21	22	26	27	
	2	15	3	4	4	4	18	19	24	27	
	3	20	3	4	4	4	16	18	23	27	
	4	21	3	3	3	4	12	16	16	26	
	5	24	3	2	3	4	11	10	16	26	
	6	28	3	2	3	4	5	8	11	25	
14	1	6	4	3	5	4	10	26	30	20	
	2	7	3	3	4	4	10	23	29	17	
	3	9	2	3	4	4	10	22	28	16	
	4	14	2	3	4	3	10	19	28	12	
	5	18	1	3	4	3	10	18	27	10	
	6	23	1	3	4	3	10	16	26	9	
15	1	11	2	5	5	4	27	26	18	27	
	2	14	2	4	4	3	24	21	18	25	
	3	16	2	4	4	3	21	21	18	23	
	4	17	1	4	3	3	21	15	18	22	
	5	22	1	3	3	2	18	13	18	20	
	6	29	1	3	3	1	15	11	18	19	
16	1	3	4	5	2	4	23	23	18	22	
	2	7	3	4	2	4	22	19	18	19	
	3	18	2	3	2	4	21	16	18	18	
	4	20	2	2	2	4	20	12	18	17	
	5	25	2	1	2	4	19	9	18	15	
	6	28	1	1	2	4	19	3	18	14	
17	1	7	4	2	4	4	18	17	17	27	
	2	9	4	1	4	4	16	13	16	26	
	3	13	4	1	4	4	13	10	15	25	
	4	17	4	1	4	4	12	7	15	23	
	5	22	3	1	4	4	9	7	15	19	
	6	25	3	1	4	4	8	3	14	19	
18	1	1	2	1	4	1	18	24	4	17	
	2	2	2	1	4	1	17	20	4	14	
	3	9	2	1	4	1	14	16	4	12	
	4	21	2	1	4	1	13	14	4	11	
	5	27	2	1	4	1	10	9	4	5	
	6	28	2	1	4	1	9	6	4	3	
19	1	6	4	3	4	5	23	12	9	24	
	2	10	4	3	4	3	22	11	8	19	
	3	11	4	3	4	3	20	11	7	18	
	4	12	3	3	3	3	20	10	7	15	
	5	13	3	2	2	1	19	9	6	15	
	6	21	3	2	2	1	18	9	6	11	
20	1	6	4	2	2	4	2	1	23	19	
	2	12	4	1	2	3	1	1	22	19	
	3	13	3	1	2	2	1	1	22	19	
	4	19	3	1	2	2	1	1	22	18	
	5	24	3	1	2	1	1	1	22	18	
	6	28	2	1	2	1	1	1	22	18	
21	1	5	2	1	5	3	20	20	12	10	
	2	8	2	1	4	2	20	19	10	9	
	3	9	2	1	4	2	16	19	10	8	
	4	12	1	1	3	1	15	19	9	7	
	5	16	1	1	3	1	12	18	8	6	
	6	19	1	1	3	1	11	17	7	6	
22	1	3	3	5	5	2	24	20	18	27	
	2	12	3	4	4	2	19	19	18	27	
	3	15	3	4	4	2	19	18	13	24	
	4	23	2	4	3	2	13	17	8	21	
	5	26	2	4	2	1	11	16	4	19	
	6	28	2	4	2	1	6	16	4	17	
23	1	7	4	4	4	4	15	26	24	27	
	2	14	3	3	4	3	13	26	18	27	
	3	18	3	3	4	3	12	25	17	27	
	4	19	3	2	4	3	11	23	12	27	
	5	23	3	2	4	3	10	23	7	26	
	6	30	3	2	4	3	9	21	5	26	
24	1	5	3	2	5	2	7	4	29	22	
	2	12	2	1	5	1	7	3	21	20	
	3	26	2	1	5	1	6	3	20	16	
	4	27	2	1	5	1	6	2	13	15	
	5	28	1	1	5	1	6	1	10	13	
	6	30	1	1	5	1	5	1	8	10	
25	1	8	4	4	3	3	30	18	27	28	
	2	14	3	4	3	3	29	18	23	26	
	3	21	3	3	3	3	29	17	18	23	
	4	24	3	3	2	3	29	15	16	21	
	5	25	2	2	2	3	29	15	8	17	
	6	26	2	2	1	3	29	14	8	15	
26	1	10	4	4	1	3	25	28	11	16	
	2	12	4	3	1	2	25	25	10	14	
	3	13	4	3	1	2	24	23	8	14	
	4	20	4	3	1	2	24	20	8	13	
	5	22	4	3	1	2	23	20	5	11	
	6	23	4	3	1	2	23	17	4	10	
27	1	1	5	2	3	3	17	26	26	12	
	2	5	3	2	2	3	15	25	23	11	
	3	6	3	2	2	3	14	23	22	11	
	4	12	3	2	2	3	13	23	19	10	
	5	17	2	2	2	3	10	22	17	10	
	6	22	1	2	2	3	10	20	15	9	
28	1	4	3	3	5	4	5	11	23	19	
	2	5	3	3	4	4	5	11	19	19	
	3	6	3	3	4	4	5	11	17	17	
	4	19	2	2	3	4	4	11	10	15	
	5	28	1	2	3	4	3	11	5	14	
	6	30	1	2	2	4	3	11	2	14	
29	1	10	5	4	5	3	17	25	23	22	
	2	11	4	4	4	2	17	22	21	22	
	3	13	4	4	3	2	17	20	20	22	
	4	20	4	4	2	2	17	16	17	22	
	5	23	3	4	2	2	17	13	17	22	
	6	28	3	4	1	2	17	12	14	22	
30	1	2	4	2	3	4	10	23	15	26	
	2	4	3	2	3	4	9	23	12	22	
	3	5	3	2	3	4	6	15	10	20	
	4	6	3	2	2	3	5	11	10	17	
	5	14	2	2	2	3	5	5	8	14	
	6	17	1	2	2	3	3	1	5	9	
31	1	4	4	4	5	4	10	16	9	22	
	2	8	3	4	4	3	9	15	9	21	
	3	9	2	3	4	2	8	15	7	21	
	4	17	2	3	4	2	7	14	7	21	
	5	26	1	2	4	1	7	12	5	21	
	6	27	1	2	4	1	6	12	4	21	
32	1	4	4	5	5	2	25	12	23	27	
	2	5	4	4	5	2	25	10	23	26	
	3	19	4	3	5	2	21	10	17	26	
	4	21	4	2	5	2	19	10	13	25	
	5	23	3	1	5	2	16	8	12	24	
	6	27	3	1	5	2	10	8	5	24	
33	1	2	1	5	2	4	20	13	20	14	
	2	11	1	4	2	3	16	13	17	10	
	3	17	1	4	2	3	16	13	15	10	
	4	22	1	4	2	3	9	13	9	6	
	5	28	1	4	2	3	7	13	7	4	
	6	30	1	4	2	3	3	13	6	2	
34	1	1	5	1	2	4	13	26	21	19	
	2	6	4	1	2	3	13	25	18	18	
	3	7	4	1	2	3	10	23	15	17	
	4	16	4	1	2	2	10	23	13	16	
	5	17	3	1	1	2	6	22	11	16	
	6	19	3	1	1	1	6	21	11	15	
35	1	1	2	2	3	2	11	20	10	27	
	2	2	1	2	3	2	11	16	9	26	
	3	9	1	2	3	2	9	12	9	25	
	4	18	1	2	3	2	8	8	9	25	
	5	19	1	2	3	2	8	8	8	25	
	6	26	1	2	3	2	6	4	8	24	
36	1	2	1	4	3	4	18	15	11	23	
	2	16	1	4	3	4	13	13	10	23	
	3	17	1	4	2	4	13	11	9	22	
	4	18	1	4	2	4	11	10	7	20	
	5	20	1	4	2	4	8	9	6	19	
	6	26	1	4	1	4	3	8	3	19	
37	1	5	3	4	1	2	22	25	24	19	
	2	9	3	4	1	2	19	22	19	19	
	3	10	3	4	1	2	15	20	16	15	
	4	13	3	3	1	2	14	18	14	15	
	5	26	3	3	1	2	12	18	8	11	
	6	27	3	3	1	2	8	15	5	11	
38	1	2	5	5	4	4	25	21	25	23	
	2	3	4	5	3	4	23	17	20	20	
	3	13	4	5	3	4	21	16	17	18	
	4	21	3	5	2	4	15	11	13	14	
	5	22	2	5	2	4	9	11	8	10	
	6	23	2	5	2	4	5	6	4	6	
39	1	2	3	1	4	2	16	29	24	10	
	2	3	3	1	4	2	15	23	20	10	
	3	15	3	1	4	2	15	21	15	10	
	4	21	3	1	3	2	15	15	10	10	
	5	27	3	1	3	2	15	11	9	10	
	6	29	3	1	3	2	15	5	4	10	
40	1	1	2	3	5	4	18	26	4	20	
	2	9	2	3	4	4	16	25	4	19	
	3	20	2	3	4	4	15	23	4	19	
	4	21	1	3	3	4	13	19	4	18	
	5	25	1	2	3	4	12	19	4	18	
	6	26	1	2	2	4	11	17	4	18	
41	1	9	1	5	3	4	27	21	22	21	
	2	11	1	4	3	4	24	20	21	20	
	3	13	1	4	3	4	24	17	19	18	
	4	17	1	4	3	4	22	15	19	17	
	5	18	1	4	3	4	22	14	17	16	
	6	29	1	4	3	4	20	11	17	16	
42	1	4	3	1	1	4	25	25	23	19	
	2	5	3	1	1	4	21	25	21	18	
	3	6	3	1	1	4	20	20	18	17	
	4	14	2	1	1	4	15	20	16	16	
	5	16	2	1	1	4	12	18	11	13	
	6	20	2	1	1	4	12	15	9	12	
43	1	2	2	4	3	4	9	6	8	26	
	2	6	1	3	2	3	7	6	7	24	
	3	8	1	3	2	3	7	6	5	21	
	4	12	1	3	2	3	6	6	5	20	
	5	18	1	2	1	2	4	6	4	17	
	6	20	1	2	1	1	4	6	3	15	
44	1	3	4	5	2	2	23	15	27	23	
	2	7	4	4	1	2	21	14	18	21	
	3	13	4	3	1	2	21	14	17	18	
	4	14	3	2	1	2	18	13	9	13	
	5	22	2	2	1	2	15	13	8	11	
	6	24	2	1	1	2	15	12	2	9	
45	1	3	1	5	4	4	27	26	25	18	
	2	9	1	4	3	3	25	25	23	16	
	3	16	1	3	3	3	19	25	21	14	
	4	17	1	3	2	3	17	23	20	10	
	5	18	1	1	1	2	12	23	18	9	
	6	22	1	1	1	1	9	22	17	7	
46	1	1	2	2	4	2	25	19	8	13	
	2	7	2	1	3	2	22	18	7	12	
	3	9	2	1	3	2	20	13	7	11	
	4	13	2	1	3	2	18	10	6	8	
	5	20	2	1	3	2	15	7	6	8	
	6	28	2	1	3	2	11	3	5	6	
47	1	3	2	4	4	4	10	17	8	20	
	2	8	2	3	3	4	10	17	6	18	
	3	9	2	3	3	4	8	17	6	16	
	4	10	2	2	3	4	5	17	4	13	
	5	11	2	1	2	3	3	17	3	13	
	6	13	2	1	2	3	2	17	3	10	
48	1	4	5	4	4	3	13	21	23	17	
	2	5	4	3	4	3	13	19	19	14	
	3	8	4	3	4	2	11	16	14	14	
	4	14	4	3	3	2	11	15	13	12	
	5	18	3	2	3	1	10	12	8	12	
	6	24	3	2	3	1	9	9	4	10	
49	1	5	4	5	5	4	18	12	16	19	
	2	15	4	4	4	4	15	10	15	19	
	3	19	4	4	3	4	11	8	13	17	
	4	23	4	4	3	4	9	8	11	14	
	5	28	4	4	2	4	9	5	8	13	
	6	30	4	4	2	4	7	5	8	11	
50	1	8	4	4	3	4	27	24	24	17	
	2	10	4	3	2	3	27	23	18	17	
	3	16	4	3	2	3	26	23	15	17	
	4	19	4	3	2	3	24	22	12	17	
	5	21	3	1	2	2	23	20	7	17	
	6	26	3	1	2	2	21	19	5	17	
51	1	1	2	3	4	2	24	23	8	13	
	2	8	2	3	4	2	24	21	7	13	
	3	10	2	3	4	2	24	19	7	13	
	4	23	1	3	4	2	24	17	7	12	
	5	27	1	3	4	2	24	16	7	11	
	6	30	1	3	4	2	24	15	7	11	
52	1	0	0	0	0	0	0	0	0	0	
************************************************************************

 RESOURCE AVAILABILITIES 
	R 1	R 2	R 3	R 4	N 1	N 2	N 3	N 4
	41	44	49	51	608	685	542	743

************************************************************************
